p cnf 58 312
1 2 3 0
1 -2 6 0
-1 2 4 0
-1 -2 5 0
7 8 9 10 11 12 13 1 2 14 0
7 8 9 10 11 12 13 1 -2 14 0
7 8 9 10 11 12 13 -1 2 53 0
7 8 9 10 11 12 13 -1 -2 14 0
7 8 9 10 11 12 -13 1 2 14 0
7 8 9 10 11 12 -13 1 -2 14 0
7 8 9 10 11 12 -13 -1 2 14 0
7 8 9 10 11 12 -13 -1 -2 26 0
7 8 9 10 11 -12 13 1 2 14 0
7 8 9 10 11 -12 13 1 -2 14 0
7 8 9 10 11 -12 13 -1 2 41 0
7 8 9 10 11 -12 13 -1 -2 26 0
7 8 9 10 11 -12 -13 1 2 16 0
7 8 9 10 11 -12 -13 1 -2 14 0
7 8 9 10 11 -12 -13 -1 2 48 0
7 8 9 10 11 -12 -13 -1 -2 40 0
7 8 9 10 -11 12 13 1 2 15 0
7 8 9 10 -11 12 13 1 -2 14 0
7 8 9 10 -11 12 13 -1 2 54 0
7 8 9 10 -11 12 13 -1 -2 26 0
7 8 9 10 -11 12 -13 1 2 18 0
7 8 9 10 -11 12 -13 1 -2 14 0
7 8 9 10 -11 12 -13 -1 2 48 0
7 8 9 10 -11 12 -13 -1 -2 26 0
7 8 9 10 -11 -12 13 1 2 22 0
7 8 9 10 -11 -12 13 1 -2 46 0
7 8 9 10 -11 -12 13 -1 2 48 0
7 8 9 10 -11 -12 13 -1 -2 40 0
7 8 9 10 -11 -12 -13 1 2 22 0
7 8 9 10 -11 -12 -13 1 -2 14 0
7 8 9 10 -11 -12 -13 -1 2 48 0
7 8 9 10 -11 -12 -13 -1 -2 40 0
7 8 9 -10 11 12 13 1 2 23 0
7 8 9 -10 11 12 13 1 -2 14 0
7 8 9 -10 11 12 13 -1 2 41 0
7 8 9 -10 11 12 13 -1 -2 14 0
7 8 9 -10 11 12 -13 1 2 30 0
7 8 9 -10 11 12 -13 1 -2 14 0
7 8 9 -10 11 12 -13 -1 2 14 0
7 8 9 -10 11 12 -13 -1 -2 38 0
7 8 9 -10 11 -12 13 1 2 31 0
7 8 9 -10 11 -12 13 1 -2 46 0
7 8 9 -10 11 -12 13 -1 2 41 0
7 8 9 -10 11 -12 13 -1 -2 26 0
7 8 9 -10 11 -12 -13 1 2 32 0
7 8 9 -10 11 -12 -13 1 -2 14 0
7 8 9 -10 11 -12 -13 -1 2 48 0
7 8 9 -10 11 -12 -13 -1 -2 38 0
7 8 9 -10 -11 12 13 1 2 33 0
7 8 9 -10 -11 12 13 1 -2 17 0
7 8 9 -10 -11 12 13 -1 2 19 0
7 8 9 -10 -11 12 13 -1 -2 26 0
7 8 9 -10 -11 12 -13 1 2 20 0
7 8 9 -10 -11 12 -13 1 -2 14 0
7 8 9 -10 -11 12 -13 -1 2 48 0
7 8 9 -10 -11 12 -13 -1 -2 38 0
7 8 9 -10 -11 -12 13 1 2 32 0
7 8 9 -10 -11 -12 13 1 -2 14 0
7 8 9 -10 -11 -12 13 -1 2 42 0
7 8 9 -10 -11 -12 13 -1 -2 26 0
7 8 9 -10 -11 -12 -13 1 2 24 0
7 8 9 -10 -11 -12 -13 1 -2 14 0
7 8 9 -10 -11 -12 -13 -1 2 48 0
7 8 9 -10 -11 -12 -13 -1 -2 40 0
7 8 -9 10 11 12 13 1 2 24 0
7 8 -9 10 11 12 13 1 -2 14 0
7 8 -9 10 11 12 13 -1 2 49 0
7 8 -9 10 11 12 13 -1 -2 38 0
7 8 -9 10 11 12 -13 1 2 22 0
7 8 -9 10 11 12 -13 1 -2 14 0
7 8 -9 10 11 12 -13 -1 2 41 0
7 8 -9 10 11 12 -13 -1 -2 14 0
7 8 -9 10 11 -12 13 1 2 34 0
7 8 -9 10 11 -12 13 1 -2 17 0
7 8 -9 10 11 -12 13 -1 2 48 0
7 8 -9 10 11 -12 13 -1 -2 45 0
7 8 -9 10 11 -12 -13 1 2 25 0
7 8 -9 10 11 -12 -13 1 -2 14 0
7 8 -9 10 11 -12 -13 -1 2 41 0
7 8 -9 10 11 -12 -13 -1 -2 38 0
7 8 -9 10 -11 12 13 1 2 24 0
7 8 -9 10 -11 12 13 1 -2 46 0
7 8 -9 10 -11 12 13 -1 2 27 0
7 8 -9 10 -11 12 13 -1 -2 47 0
7 8 -9 10 -11 12 -13 1 2 35 0
7 8 -9 10 -11 12 -13 1 -2 46 0
7 8 -9 10 -11 12 -13 -1 2 19 0
7 8 -9 10 -11 12 -13 -1 -2 45 0
7 8 -9 10 -11 -12 13 1 2 36 0
7 8 -9 10 -11 -12 13 1 -2 14 0
7 8 -9 10 -11 -12 13 -1 2 56 0
7 8 -9 10 -11 -12 13 -1 -2 40 0
7 8 -9 10 -11 -12 -13 1 2 25 0
7 8 -9 10 -11 -12 -13 1 -2 14 0
7 8 -9 10 -11 -12 -13 -1 2 49 0
7 8 -9 10 -11 -12 -13 -1 -2 47 0
7 8 -9 -10 11 12 13 1 2 28 0
7 8 -9 -10 11 12 13 1 -2 14 0
7 8 -9 -10 11 12 13 -1 2 19 0
7 8 -9 -10 11 12 13 -1 -2 38 0
7 8 -9 -10 11 12 -13 1 2 20 0
7 8 -9 -10 11 12 -13 1 -2 14 0
7 8 -9 -10 11 12 -13 -1 2 54 0
7 8 -9 -10 11 12 -13 -1 -2 47 0
7 8 -9 -10 11 -12 13 1 2 23 0
7 8 -9 -10 11 -12 13 1 -2 46 0
7 8 -9 -10 11 -12 13 -1 2 43 0
7 8 -9 -10 11 -12 13 -1 -2 38 0
7 8 -9 -10 11 -12 -13 1 2 24 0
7 8 -9 -10 11 -12 -13 1 -2 14 0
7 8 -9 -10 11 -12 -13 -1 2 19 0
7 8 -9 -10 11 -12 -13 -1 -2 40 0
7 8 -9 -10 -11 12 13 1 2 37 0
7 8 -9 -10 -11 12 13 1 -2 14 0
7 8 -9 -10 -11 12 13 -1 2 41 0
7 8 -9 -10 -11 12 13 -1 -2 40 0
7 8 -9 -10 -11 12 -13 1 2 23 0
7 8 -9 -10 -11 12 -13 1 -2 14 0
7 8 -9 -10 -11 12 -13 -1 2 43 0
7 8 -9 -10 -11 12 -13 -1 -2 51 0
7 8 -9 -10 -11 -12 13 1 2 30 0
7 8 -9 -10 -11 -12 13 1 -2 46 0
7 8 -9 -10 -11 -12 13 -1 2 57 0
7 8 -9 -10 -11 -12 13 -1 -2 21 0
7 8 -9 -10 -11 -12 -13 1 2 24 0
7 8 -9 -10 -11 -12 -13 1 -2 14 0
7 8 -9 -10 -11 -12 -13 -1 2 41 0
7 8 -9 -10 -11 -12 -13 -1 -2 26 0
7 -8 9 10 11 12 13 1 2 24 0
7 -8 9 10 11 12 13 1 -2 46 0
7 -8 9 10 11 12 13 -1 2 49 0
7 -8 9 10 11 12 13 -1 -2 47 0
7 -8 9 10 11 12 -13 1 2 28 0
7 -8 9 10 11 12 -13 1 -2 14 0
7 -8 9 10 11 12 -13 -1 2 49 0
7 -8 9 10 11 12 -13 -1 -2 44 0
7 -8 9 10 11 -12 13 1 2 34 0
7 -8 9 10 11 -12 13 1 -2 46 0
7 -8 9 10 11 -12 13 -1 2 42 0
7 -8 9 10 11 -12 13 -1 -2 51 0
7 -8 9 10 11 -12 -13 1 2 32 0
7 -8 9 10 11 -12 -13 1 -2 14 0
7 -8 9 10 11 -12 -13 -1 2 49 0
7 -8 9 10 11 -12 -13 -1 -2 44 0
7 -8 9 10 -11 12 13 1 2 30 0
7 -8 9 10 -11 12 13 1 -2 14 0
7 -8 9 10 -11 12 13 -1 2 39 0
7 -8 9 10 -11 12 13 -1 -2 58 0
7 -8 9 10 -11 12 -13 1 2 34 0
7 -8 9 10 -11 12 -13 1 -2 14 0
7 -8 9 10 -11 12 -13 -1 2 56 0
7 -8 9 10 -11 12 -13 -1 -2 38 0
7 -8 9 10 -11 -12 13 1 2 25 0
7 -8 9 10 -11 -12 13 1 -2 14 0
7 -8 9 10 -11 -12 13 -1 2 52 0
7 -8 9 10 -11 -12 13 -1 -2 26 0
7 -8 9 10 -11 -12 -13 1 2 30 0
7 -8 9 10 -11 -12 -13 1 -2 14 0
7 -8 9 10 -11 -12 -13 -1 2 48 0
7 -8 9 10 -11 -12 -13 -1 -2 38 0
7 -8 9 -10 11 12 13 1 2 29 0
7 -8 9 -10 11 12 13 1 -2 46 0
7 -8 9 -10 11 12 13 -1 2 27 0
7 -8 9 -10 11 12 13 -1 -2 40 0
7 -8 9 -10 11 12 -13 1 2 25 0
7 -8 9 -10 11 12 -13 1 -2 46 0
7 -8 9 -10 11 12 -13 -1 2 43 0
7 -8 9 -10 11 12 -13 -1 -2 38 0
7 -8 9 -10 11 -12 13 1 2 29 0
7 -8 9 -10 11 -12 13 1 -2 14 0
7 -8 9 -10 11 -12 13 -1 2 49 0
7 -8 9 -10 11 -12 13 -1 -2 14 0
7 -8 9 -10 11 -12 -13 1 2 20 0
7 -8 9 -10 11 -12 -13 1 -2 14 0
7 -8 9 -10 11 -12 -13 -1 2 27 0
7 -8 9 -10 11 -12 -13 -1 -2 38 0
7 -8 9 -10 -11 12 13 1 2 18 0
7 -8 9 -10 -11 12 13 1 -2 14 0
7 -8 9 -10 -11 12 13 -1 2 56 0
7 -8 9 -10 -11 12 13 -1 -2 14 0
7 -8 9 -10 -11 12 -13 1 2 29 0
7 -8 9 -10 -11 12 -13 1 -2 14 0
7 -8 9 -10 -11 12 -13 -1 2 54 0
7 -8 9 -10 -11 12 -13 -1 -2 14 0
7 -8 9 -10 -11 -12 13 1 2 14 0
7 -8 9 -10 -11 -12 13 1 -2 14 0
7 -8 9 -10 -11 -12 13 -1 2 27 0
7 -8 9 -10 -11 -12 13 -1 -2 40 0
7 -8 9 -10 -11 -12 -13 1 2 20 0
7 -8 9 -10 -11 -12 -13 1 -2 14 0
7 -8 9 -10 -11 -12 -13 -1 2 49 0
7 -8 9 -10 -11 -12 -13 -1 -2 40 0
7 -8 -9 10 11 12 13 1 2 24 0
7 -8 -9 10 11 12 13 1 -2 14 0
7 -8 -9 10 11 12 13 -1 2 41 0
7 -8 -9 10 11 12 13 -1 -2 26 0
7 -8 -9 10 11 12 -13 1 2 22 0
7 -8 -9 10 11 12 -13 1 -2 14 0
7 -8 -9 10 11 12 -13 -1 2 43 0
7 -8 -9 10 11 12 -13 -1 -2 14 0
7 -8 -9 10 11 -12 13 1 2 16 0
7 -8 -9 10 11 -12 13 1 -2 14 0
7 -8 -9 10 11 -12 13 -1 2 56 0
7 -8 -9 10 11 -12 13 -1 -2 38 0
7 -8 -9 10 11 -12 -13 1 2 16 0
7 -8 -9 10 11 -12 -13 1 -2 14 0
7 -8 -9 10 11 -12 -13 -1 2 54 0
7 -8 -9 10 11 -12 -13 -1 -2 26 0
7 -8 -9 10 -11 12 13 1 2 55 0
7 -8 -9 10 -11 12 13 1 -2 14 0
7 -8 -9 10 -11 12 13 -1 2 50 0
7 -8 -9 10 -11 12 13 -1 -2 44 0
7 -8 -9 10 -11 12 -13 1 2 18 0
7 -8 -9 10 -11 12 -13 1 -2 14 0
7 -8 -9 10 -11 12 -13 -1 2 50 0
7 -8 -9 10 -11 12 -13 -1 -2 26 0
7 -8 -9 10 -11 -12 13 1 2 15 0
7 -8 -9 10 -11 -12 13 1 -2 14 0
7 -8 -9 10 -11 -12 13 -1 2 54 0
7 -8 -9 10 -11 -12 13 -1 -2 14 0
7 -8 -9 10 -11 -12 -13 1 2 18 0
7 -8 -9 10 -11 -12 -13 1 -2 14 0
7 -8 -9 10 -11 -12 -13 -1 2 14 0
7 -8 -9 10 -11 -12 -13 -1 -2 14 0
7 -8 -9 -10 11 12 13 1 2 20 0
7 -8 -9 -10 11 12 13 1 -2 14 0
7 -8 -9 -10 11 12 13 -1 2 41 0
7 -8 -9 -10 11 12 13 -1 -2 40 0
7 -8 -9 -10 11 12 -13 1 2 20 0
7 -8 -9 -10 11 12 -13 1 -2 14 0
7 -8 -9 -10 11 12 -13 -1 2 19 0
7 -8 -9 -10 11 12 -13 -1 -2 14 0
7 -8 -9 -10 11 -12 13 1 2 16 0
7 -8 -9 -10 11 -12 13 1 -2 14 0
7 -8 -9 -10 11 -12 13 -1 2 42 0
7 -8 -9 -10 11 -12 13 -1 -2 26 0
7 -8 -9 -10 11 -12 -13 1 2 14 0
7 -8 -9 -10 11 -12 -13 1 -2 14 0
7 -8 -9 -10 11 -12 -13 -1 2 41 0
7 -8 -9 -10 11 -12 -13 -1 -2 14 0
7 -8 -9 -10 -11 12 13 1 2 14 0
7 -8 -9 -10 -11 12 13 1 -2 14 0
7 -8 -9 -10 -11 12 13 -1 2 48 0
7 -8 -9 -10 -11 12 13 -1 -2 26 0
7 -8 -9 -10 -11 12 -13 1 2 15 0
7 -8 -9 -10 -11 12 -13 1 -2 14 0
7 -8 -9 -10 -11 12 -13 -1 2 19 0
7 -8 -9 -10 -11 12 -13 -1 -2 38 0
7 -8 -9 -10 -11 -12 13 1 2 14 0
7 -8 -9 -10 -11 -12 13 1 -2 14 0
7 -8 -9 -10 -11 -12 13 -1 2 19 0
7 -8 -9 -10 -11 -12 13 -1 -2 38 0
7 -8 -9 -10 -11 -12 -13 1 2 15 0
7 -8 -9 -10 -11 -12 -13 1 -2 14 0
7 -8 -9 -10 -11 -12 -13 -1 2 54 0
7 -8 -9 -10 -11 -12 -13 -1 -2 40 0
-7 8 9 10 11 12 13 1 2 20 0
-7 8 9 10 11 12 13 1 -2 14 0
-7 8 9 10 11 12 13 -1 2 14 0
-7 8 9 10 11 12 13 -1 -2 40 0
-7 8 9 10 11 12 -13 1 2 14 0
-7 8 9 10 11 12 -13 1 -2 14 0
-7 8 9 10 11 12 -13 -1 2 41 0
-7 8 9 10 11 12 -13 -1 -2 26 0
-7 8 9 10 11 -12 13 1 2 16 0
-7 8 9 10 11 -12 13 1 -2 14 0
-7 8 9 10 11 -12 13 -1 2 53 0
-7 8 9 10 11 -12 13 -1 -2 14 0
-7 8 9 10 11 -12 -13 1 2 14 0
-7 8 9 10 11 -12 -13 1 -2 14 0
-7 8 9 10 11 -12 -13 -1 2 53 0
-7 8 9 10 11 -12 -13 -1 -2 14 0
-7 8 9 10 -11 12 13 1 2 16 0
-7 8 9 10 -11 12 13 1 -2 14 0
-7 8 9 10 -11 12 13 -1 2 14 0
-7 8 9 10 -11 12 13 -1 -2 45 0
-7 8 9 10 -11 12 -13 1 2 14 0
-7 8 9 10 -11 12 -13 1 -2 14 0
-7 8 9 10 -11 12 -13 -1 2 48 0
-7 8 9 10 -11 12 -13 -1 -2 26 0
-7 8 9 10 -11 -12 13 1 2 14 0
-7 8 9 10 -11 -12 13 1 -2 14 0
-7 8 9 10 -11 -12 13 -1 2 53 0
-7 8 9 10 -11 -12 13 -1 -2 26 0
-7 8 9 10 -11 -12 -13 1 2 16 0
-7 8 9 10 -11 -12 -13 1 -2 14 0
-7 8 9 10 -11 -12 -13 -1 2 48 0
-7 8 9 10 -11 -12 -13 -1 -2 38 0
-7 8 9 -10 11 12 13 1 2 14 0
-7 8 9 -10 11 12 13 1 -2 14 0
-7 8 9 -10 11 12 13 -1 2 53 0
-7 8 9 -10 11 12 13 -1 -2 14 0
-7 8 9 -10 11 12 -13 1 2 14 0
-7 8 9 -10 11 12 -13 1 -2 14 0
-7 8 9 -10 11 12 -13 -1 2 14 0
-7 8 9 -10 11 12 -13 -1 -2 38 0
-7 8 9 -10 11 -12 13 1 2 14 0
-7 8 9 -10 11 -12 13 1 -2 14 0
-7 8 9 -10 11 -12 13 -1 2 14 0
-7 8 9 -10 11 -12 13 -1 -2 44 0
-7 8 9 -10 11 -12 -13 1 2 15 0
-7 8 9 -10 11 -12 -13 1 -2 14 0
-7 8 9 -10 11 -12 -13 -1 2 14 0
-7 8 9 -10 11 -12 -13 -1 -2 14 0
-7 8 9 -10 -11 12 13 1 2 15 0
-7 8 9 -10 -11 12 13 1 -2 14 0
-7 8 9 -10 -11 12 13 -1 2 53 0
-7 8 9 -10 -11 12 13 -1 -2 51 0
